job_count = 16 ;
duration = [|15, 7|14, 6|13, 1|6, 8|18, 1|9, 9|17, 1|18, 3|7, 9|11, 9|16, 7|4, 8|18, 6|17, 4|16, 4|6, 6|] ;
machine_count = 2 ;
cost = [|15, 33|17, 31|15, 37|11, 28|11, 28|10, 21|13, 33|11, 24|18, 39|19, 33|15, 38|16, 32|14, 29|13, 21|10, 22|19, 36|] ;
deadline = [40, 40, 40, 40, 40, 40, 40, 40, 40, 40, 40, 40, 40, 40, 40, 40] ;
release = [0, 0, 0, 0, 0, 0, 0, 0, 0, 0, 0, 0, 0, 0, 0, 0] ;
resource = [|2, 2|9, 9|9, 9|4, 4|9, 9|4, 4|7, 7|8, 8|1, 1|4, 4|6, 6|2, 2|6, 6|9, 9|5, 5|4, 4|] ;
capacities = [10, 10] ;
